Second Year/First Semester/Algorithm Analysis/Homework 2/sat_in/bonus/09.wcnf
p wcnf 8 29 148
148 1 2 0
148 1 3 0
148 1 5 0
148 1 6 0
148 1 8 0
148 2 3 0
148 2 4 0
148 2 5 0
148 2 6 0
148 2 7 0
148 2 8 0
148 3 4 0
148 3 5 0
148 3 8 0
148 4 5 0
148 4 7 0
148 4 8 0
148 5 7 0
148 5 8 0
148 6 7 0
148 7 8 0
16 -1 0
15 -2 0
18 -3 0
18 -4 0
19 -5 0
20 -6 0
20 -7 0
21 -8 0
