Second Year/First Semester/Algorithm Analysis/Homework 2/sat_in/task3/09.cnf
p cnf 16 59
1 2 3 4 5 6 7 8 0
9 10 11 12 13 14 15 16 0
-1 -9 0
-2 -10 0
-3 -11 0
-4 -12 0
-5 -13 0
-6 -14 0
-7 -15 0
-8 -16 0
-1 -10 0
-1 -11 0
-1 -13 0
-1 -14 0
-1 -16 0
-2 -9 0
-2 -11 0
-2 -12 0
-2 -13 0
-2 -14 0
-2 -15 0
-2 -16 0
-3 -9 0
-3 -10 0
-3 -12 0
-3 -13 0
-3 -16 0
-4 -9 0
-4 -10 0
-4 -11 0
-4 -13 0
-4 -15 0
-4 -16 0
-5 -9 0
-5 -10 0
-5 -11 0
-5 -12 0
-5 -15 0
-5 -16 0
-6 -9 0
-6 -10 0
-6 -11 0
-6 -12 0
-6 -13 0
-6 -15 0
-7 -9 0
-7 -10 0
-7 -11 0
-7 -12 0
-7 -13 0
-7 -14 0
-7 -16 0
-8 -9 0
-8 -10 0
-8 -11 0
-8 -12 0
-8 -13 0
-8 -14 0
-8 -15 0
